0000000000000000
0000000000000000
0000000000000000
0000001100000000
0000001100000000
0000000100000000
0000000100000000
0000000010000000
0000000010000000
0000011010000000
0000010010000000
0000000000000000
0000000000000000
0000000000000000
0000000000000000
0000000000000000
